hw1/knapsack_orig.lp
maximize
11x+4y+9z
subject to
16x+4y+6z < 30
3x+4y+3z < 20
x < 3
y < 4
z < 1
integer
end