hw1/knapsack_orig.out
Problem:    
Rows:       5
Columns:    3
Non-zeros:  9
Status:     OPTIMAL
Objective:  obj = 30.30769231 (MAXimum)

   No.   Row name   St   Activity     Lower bound   Upper bound    Marginal
------ ------------ -- ------------- ------------- ------------- -------------
     1 r.4          NU            30                          30      0.615385 
     2 r.5          NU            20                          20      0.384615 
     3 r.6          B       0.538462                           3 
     4 r.7          B        3.84615                           4 
     5 r.8          NU             1                           1       4.15385 

   No. Column name  St   Activity     Lower bound   Upper bound    Marginal
------ ------------ -- ------------- ------------- ------------- -------------
     1 x            B       0.538462             0               
     2 y            B        3.84615             0               
     3 z            B              1             0               

Karush-Kuhn-Tucker optimality conditions:

KKT.PE: max.abs.err = 3.55e-15 on row 1
        max.rel.err = 8.67e-17 on row 2
        High quality

KKT.PB: max.abs.err = 0.00e+00 on row 0
        max.rel.err = 0.00e+00 on row 0
        High quality

KKT.DE: max.abs.err = 0.00e+00 on column 0
        max.rel.err = 0.00e+00 on column 0
        High quality

KKT.DB: max.abs.err = 0.00e+00 on row 0
        max.rel.err = 0.00e+00 on row 0
        High quality

End of output
